<number of tasks>
50

<cycle time>
1000

<order strength>
0.199


<task times>
1 108
2 280
3 330
4 37
5 304
6 287
7 272
8 223
9 422
10 149
11 405
12 159
13 171
14 87
15 96
16 119
17 203
18 127
19 157
20 42
21 561
22 152
23 41
24 455
25 199
26 210
27 377
28 158
29 193
30 61
31 233
32 51
33 40
34 257
35 26
36 278
37 441
38 249
39 245
40 106
41 255
42 531
43 128
44 553
45 48
46 91
47 75
48 401
49 113
50 53

<precedence relations>
1,5
2,4
2,6
2,9
2,30
3,7
3,8
3,10
4,11
5,14
6,12
7,16
8,15
9,32
9,36
10,13
10,16
11,17
12,19
13,18
13,20
13,23
13,30
15,21
15,22
17,24
18,25
19,27
20,29
21,26
21,28
22,30
22,31
22,32
23,32
24,35
25,35
26,33
27,36
28,34
29,35
31,36
32,37
32,38
32,39
33,40
34,41
38,42
38,43
39,44
39,45
40,46
41,47
41,49
41,50
42,48

<end>
